Minimize 
     z_0 + z_1 + z_2 + z_3 + z_4 + z_5 + z_6 + z_7 + z_8 + z_9
Subject To 
    ctr_0: 29x_0_0 + 15x_0_1 + 5x_0_2 + 58x_0_3 - 100 z_0 <= 0
    ctr_1: 29x_1_0 + 15x_1_1 + 5x_1_2 + 58x_1_3 - 100 z_1 <= 0
    ctr_2: 29x_2_0 + 15x_2_1 + 5x_2_2 + 58x_2_3 - 100 z_2 <= 0
    ctr_3: 29x_3_0 + 15x_3_1 + 5x_3_2 + 58x_3_3 - 100 z_3 <= 0
    ctr_4: 29x_4_0 + 15x_4_1 + 5x_4_2 + 58x_4_3 - 100 z_4 <= 0
    ctr_5: 29x_5_0 + 15x_5_1 + 5x_5_2 + 58x_5_3 - 100 z_5 <= 0
    ctr_6: 29x_6_0 + 15x_6_1 + 5x_6_2 + 58x_6_3 - 100 z_6 <= 0
    ctr_7: 29x_7_0 + 15x_7_1 + 5x_7_2 + 58x_7_3 - 100 z_7 <= 0
    ctr_8: 29x_8_0 + 15x_8_1 + 5x_8_2 + 58x_8_3 - 100 z_8 <= 0
    ctr_9: 29x_9_0 + 15x_9_1 + 5x_9_2 + 58x_9_3 - 100 z_9 <= 0
    ctr_10: x_0_0 + x_1_0 + x_2_0 + x_3_0 + x_4_0 + x_5_0 + x_6_0 + x_7_0 + x_8_0 + x_9_0 = 5
    ctr_11: x_0_1 + x_1_1 + x_2_1 + x_3_1 + x_4_1 + x_5_1 + x_6_1 + x_7_1 + x_8_1 + x_9_1 = 3
    ctr_12: x_0_2 + x_1_2 + x_2_2 + x_3_2 + x_4_2 + x_5_2 + x_6_2 + x_7_2 + x_8_2 + x_9_2 = 1
    ctr_13: x_0_3 + x_1_3 + x_2_3 + x_3_3 + x_4_3 + x_5_3 + x_6_3 + x_7_3 + x_8_3 + x_9_3 = 1
Binary 
     z_0
     z_1
     z_2
     z_3
     z_4
     z_5
     z_6
     z_7
     z_8
     z_9
     y_0_0
     y_0_1
     y_0_2
     y_0_3
     y_1_0
     y_1_1
     y_1_2
     y_1_3
     y_2_0
     y_2_1
     y_2_2
     y_2_3
     y_3_0
     y_3_1
     y_3_2
     y_3_3
     y_4_0
     y_4_1
     y_4_2
     y_4_3
     y_5_0
     y_5_1
     y_5_2
     y_5_3
     y_6_0
     y_6_1
     y_6_2
     y_6_3
     y_7_0
     y_7_1
     y_7_2
     y_7_3
     y_8_0
     y_8_1
     y_8_2
     y_8_3
     y_9_0
     y_9_1
     y_9_2
     y_9_3
Integer 
     x_0_0
     x_0_1
     x_0_2
     x_0_3
     x_1_0
     x_1_1
     x_1_2
     x_1_3
     x_2_0
     x_2_1
     x_2_2
     x_2_3
     x_3_0
     x_3_1
     x_3_2
     x_3_3
     x_4_0
     x_4_1
     x_4_2
     x_4_3
     x_5_0
     x_5_1
     x_5_2
     x_5_3
     x_6_0
     x_6_1
     x_6_2
     x_6_3
     x_7_0
     x_7_1
     x_7_2
     x_7_3
     x_8_0
     x_8_1
     x_8_2
     x_8_3
     x_9_0
     x_9_1
     x_9_2
     x_9_3
End